 $contrl units=angs local=boys runtyp=makefp coord=cart icut=11 $end
 $system timlim=99999 mwords=200 $end
 $scf dirscf=.t. soscf=.f. diis=.t. conv=1.0d-06 $end
 $damp ifttyp(1)=2,0 iftfix(1)=1,1 thrsh=500.0 $end
 $basis gbasis=n31 ngauss=6 ndfunc=1 diffsp=.t. $end
 $makefp chtr=.f. disp7=.f. $end

 $data

C1
O1  8  0.00000  0.11911  0.00000
H2  1  -1.42232  -0.94518  0.00000
 $end
